NAME           C:\Bruker\Hvattum\knapsack\Problems\class4\100-10-10.mps
ROWS
 N  OBJ
 L  CONSTR1
 L  CONSTR2
 L  CONSTR3
 L  CONSTR4
 L  CONSTR5
 L  CONSTR6
 L  CONSTR7
 L  CONSTR8
 L  CONSTR9
 L  CONSTR10
COLUMNS
    INT0001   'MARKER'  'INTORG'
    X1        OBJ       862
    X1        CONSTR1   912
    X1        CONSTR2   190
    X1        CONSTR3   784
    X1        CONSTR4   375
    X1        CONSTR5   652
    X1        CONSTR6   205
    X1        CONSTR7   721
    X1        CONSTR8   52
    X1        CONSTR9   731
    X1        CONSTR10  269
    X2        OBJ       623
    X2        CONSTR1   419
    X2        CONSTR2   885
    X2        CONSTR3   736
    X2        CONSTR4   486
    X2        CONSTR5   962
    X2        CONSTR6   357
    X2        CONSTR7   721
    X2        CONSTR8   95
    X2        CONSTR9   895
    X2        CONSTR10  51
    X3        OBJ       714
    X3        CONSTR1   317
    X3        CONSTR2   692
    X3        CONSTR3   573
    X3        CONSTR4   112
    X3        CONSTR5   106
    X3        CONSTR6   794
    X3        CONSTR7   520
    X3        CONSTR8   77
    X3        CONSTR9   578
    X3        CONSTR10  785
    X4        OBJ       619
    X4        CONSTR1   687
    X4        CONSTR2   485
    X4        CONSTR3   91
    X4        CONSTR4   924
    X4        CONSTR5   665
    X4        CONSTR6   127
    X4        CONSTR7   819
    X4        CONSTR8   982
    X4        CONSTR9   807
    X4        CONSTR10  460
    X5        OBJ       1000
    X5        CONSTR1   330
    X5        CONSTR2   401
    X5        CONSTR3   983
    X5        CONSTR4   819
    X5        CONSTR5   185
    X5        CONSTR6   782
    X5        CONSTR7   932
    X5        CONSTR8   708
    X5        CONSTR9   375
    X5        CONSTR10  45
    X6        OBJ       703
    X6        CONSTR1   579
    X6        CONSTR2   519
    X6        CONSTR3   482
    X6        CONSTR4   797
    X6        CONSTR5   64
    X6        CONSTR6   890
    X6        CONSTR7   10
    X6        CONSTR8   143
    X6        CONSTR9   32
    X6        CONSTR10  484
    X7        OBJ       953
    X7        CONSTR1   864
    X7        CONSTR2   909
    X7        CONSTR3   929
    X7        CONSTR4   246
    X7        CONSTR5   395
    X7        CONSTR6   996
    X7        CONSTR7   898
    X7        CONSTR8   729
    X7        CONSTR9   716
    X7        CONSTR10  434
    X8        OBJ       661
    X8        CONSTR1   709
    X8        CONSTR2   269
    X8        CONSTR3   571
    X8        CONSTR4   254
    X8        CONSTR5   617
    X8        CONSTR6   640
    X8        CONSTR7   978
    X8        CONSTR8   787
    X8        CONSTR9   951
    X8        CONSTR10  311
    X9        OBJ       782
    X9        CONSTR1   771
    X9        CONSTR2   595
    X9        CONSTR3   161
    X9        CONSTR4   63
    X9        CONSTR5   631
    X9        CONSTR6   867
    X9        CONSTR7   737
    X9        CONSTR8   647
    X9        CONSTR9   740
    X9        CONSTR10  113
    X10       OBJ       653
    X10       CONSTR1   281
    X10       CONSTR2   936
    X10       CONSTR3   41
    X10       CONSTR4   491
    X10       CONSTR5   474
    X10       CONSTR6   115
    X10       CONSTR7   572
    X10       CONSTR8   138
    X10       CONSTR9   600
    X10       CONSTR10  771
    X11       OBJ       587
    X11       CONSTR1   125
    X11       CONSTR2   397
    X11       CONSTR3   449
    X11       CONSTR4   77
    X11       CONSTR5   669
    X11       CONSTR6   61
    X11       CONSTR7   771
    X11       CONSTR8   765
    X11       CONSTR9   201
    X11       CONSTR10  920
    X12       OBJ       406
    X12       CONSTR1   763
    X12       CONSTR2   45
    X12       CONSTR3   317
    X12       CONSTR4   781
    X12       CONSTR5   438
    X12       CONSTR6   117
    X12       CONSTR7   229
    X12       CONSTR8   943
    X12       CONSTR9   35
    X12       CONSTR10  267
    X13       OBJ       685
    X13       CONSTR1   459
    X13       CONSTR2   278
    X13       CONSTR3   590
    X13       CONSTR4   278
    X13       CONSTR5   385
    X13       CONSTR6   808
    X13       CONSTR7   501
    X13       CONSTR8   243
    X13       CONSTR9   452
    X13       CONSTR10  298
    X14       OBJ       450
    X14       CONSTR1   63
    X14       CONSTR2   54
    X14       CONSTR3   901
    X14       CONSTR4   400
    X14       CONSTR5   834
    X14       CONSTR6   558
    X14       CONSTR7   455
    X14       CONSTR8   7
    X14       CONSTR9   40
    X14       CONSTR10  725
    X15       OBJ       829
    X15       CONSTR1   236
    X15       CONSTR2   241
    X15       CONSTR3   360
    X15       CONSTR4   465
    X15       CONSTR5   464
    X15       CONSTR6   679
    X15       CONSTR7   939
    X15       CONSTR8   856
    X15       CONSTR9   572
    X15       CONSTR10  293
    X16       OBJ       605
    X16       CONSTR1   162
    X16       CONSTR2   367
    X16       CONSTR3   203
    X16       CONSTR4   549
    X16       CONSTR5   792
    X16       CONSTR6   30
    X16       CONSTR7   981
    X16       CONSTR8   59
    X16       CONSTR9   642
    X16       CONSTR10  298
    X17       OBJ       880
    X17       CONSTR1   153
    X17       CONSTR2   823
    X17       CONSTR3   112
    X17       CONSTR4   856
    X17       CONSTR5   66
    X17       CONSTR6   728
    X17       CONSTR7   723
    X17       CONSTR8   684
    X17       CONSTR9   200
    X17       CONSTR10  412
    X18       OBJ       861
    X18       CONSTR1   748
    X18       CONSTR2   496
    X18       CONSTR3   686
    X18       CONSTR4   455
    X18       CONSTR5   725
    X18       CONSTR6   8
    X18       CONSTR7   817
    X18       CONSTR8   143
    X18       CONSTR9   179
    X18       CONSTR10  372
    X19       OBJ       784
    X19       CONSTR1   648
    X19       CONSTR2   645
    X19       CONSTR3   882
    X19       CONSTR4   810
    X19       CONSTR5   157
    X19       CONSTR6   894
    X19       CONSTR7   655
    X19       CONSTR8   44
    X19       CONSTR9   929
    X19       CONSTR10  307
    X20       OBJ       675
    X20       CONSTR1   507
    X20       CONSTR2   210
    X20       CONSTR3   364
    X20       CONSTR4   906
    X20       CONSTR5   981
    X20       CONSTR6   888
    X20       CONSTR7   312
    X20       CONSTR8   387
    X20       CONSTR9   162
    X20       CONSTR10  776
    X21       OBJ       621
    X21       CONSTR1   122
    X21       CONSTR2   288
    X21       CONSTR3   22
    X21       CONSTR4   110
    X21       CONSTR5   120
    X21       CONSTR6   572
    X21       CONSTR7   63
    X21       CONSTR8   717
    X21       CONSTR9   897
    X21       CONSTR10  758
    X22       OBJ       819
    X22       CONSTR1   106
    X22       CONSTR2   131
    X22       CONSTR3   970
    X22       CONSTR4   321
    X22       CONSTR5   221
    X22       CONSTR6   229
    X22       CONSTR7   743
    X22       CONSTR8   34
    X22       CONSTR9   594
    X22       CONSTR10  470
    X23       OBJ       515
    X23       CONSTR1   210
    X23       CONSTR2   143
    X23       CONSTR3   756
    X23       CONSTR4   710
    X23       CONSTR5   399
    X23       CONSTR6   886
    X23       CONSTR7   95
    X23       CONSTR8   698
    X23       CONSTR9   324
    X23       CONSTR10  687
    X24       OBJ       986
    X24       CONSTR1   106
    X24       CONSTR2   635
    X24       CONSTR3   340
    X24       CONSTR4   698
    X24       CONSTR5   393
    X24       CONSTR6   849
    X24       CONSTR7   496
    X24       CONSTR8   605
    X24       CONSTR9   735
    X24       CONSTR10  328
    X25       OBJ       695
    X25       CONSTR1   108
    X25       CONSTR2   859
    X25       CONSTR3   765
    X25       CONSTR4   383
    X25       CONSTR5   406
    X25       CONSTR6   453
    X25       CONSTR7   528
    X25       CONSTR8   847
    X25       CONSTR9   483
    X25       CONSTR10  609
    X26       OBJ       781
    X26       CONSTR1   550
    X26       CONSTR2   539
    X26       CONSTR3   538
    X26       CONSTR4   918
    X26       CONSTR5   157
    X26       CONSTR6   442
    X26       CONSTR7   34
    X26       CONSTR8   128
    X26       CONSTR9   664
    X26       CONSTR10  596
    X27       OBJ       506
    X27       CONSTR1   504
    X27       CONSTR2   300
    X27       CONSTR3   32
    X27       CONSTR4   868
    X27       CONSTR5   102
    X27       CONSTR6   597
    X27       CONSTR7   514
    X27       CONSTR8   542
    X27       CONSTR9   323
    X27       CONSTR10  995
    X28       OBJ       525
    X28       CONSTR1   11
    X28       CONSTR2   181
    X28       CONSTR3   926
    X28       CONSTR4   271
    X28       CONSTR5   318
    X28       CONSTR6   169
    X28       CONSTR7   522
    X28       CONSTR8   775
    X28       CONSTR9   1
    X28       CONSTR10  130
    X29       OBJ       888
    X29       CONSTR1   721
    X29       CONSTR2   239
    X29       CONSTR3   451
    X29       CONSTR4   992
    X29       CONSTR5   256
    X29       CONSTR6   771
    X29       CONSTR7   168
    X29       CONSTR8   589
    X29       CONSTR9   135
    X29       CONSTR10  753
    X30       OBJ       492
    X30       CONSTR1   490
    X30       CONSTR2   656
    X30       CONSTR3   627
    X30       CONSTR4   135
    X30       CONSTR5   238
    X30       CONSTR6   939
    X30       CONSTR7   21
    X30       CONSTR8   112
    X30       CONSTR9   236
    X30       CONSTR10  987
    X31       OBJ       707
    X31       CONSTR1   92
    X31       CONSTR2   389
    X31       CONSTR3   831
    X31       CONSTR4   581
    X31       CONSTR5   303
    X31       CONSTR6   16
    X31       CONSTR7   746
    X31       CONSTR8   171
    X31       CONSTR9   180
    X31       CONSTR10  518
    X32       OBJ       818
    X32       CONSTR1   30
    X32       CONSTR2   233
    X32       CONSTR3   738
    X32       CONSTR4   728
    X32       CONSTR5   581
    X32       CONSTR6   401
    X32       CONSTR7   841
    X32       CONSTR8   387
    X32       CONSTR9   575
    X32       CONSTR10  6
    X33       OBJ       606
    X33       CONSTR1   732
    X33       CONSTR2   869
    X33       CONSTR3   787
    X33       CONSTR4   246
    X33       CONSTR5   804
    X33       CONSTR6   369
    X33       CONSTR7   611
    X33       CONSTR8   924
    X33       CONSTR9   236
    X33       CONSTR10  205
    X34       OBJ       857
    X34       CONSTR1   274
    X34       CONSTR2   740
    X34       CONSTR3   181
    X34       CONSTR4   301
    X34       CONSTR5   828
    X34       CONSTR6   27
    X34       CONSTR7   232
    X34       CONSTR8   770
    X34       CONSTR9   226
    X34       CONSTR10  901
    X35       OBJ       1040
    X35       CONSTR1   772
    X35       CONSTR2   999
    X35       CONSTR3   637
    X35       CONSTR4   843
    X35       CONSTR5   180
    X35       CONSTR6   830
    X35       CONSTR7   607
    X35       CONSTR8   84
    X35       CONSTR9   78
    X35       CONSTR10  588
    X36       OBJ       716
    X36       CONSTR1   777
    X36       CONSTR2   987
    X36       CONSTR3   447
    X36       CONSTR4   884
    X36       CONSTR5   90
    X36       CONSTR6   853
    X36       CONSTR7   158
    X36       CONSTR8   836
    X36       CONSTR9   414
    X36       CONSTR10  215
    X37       OBJ       541
    X37       CONSTR1   788
    X37       CONSTR2   7
    X37       CONSTR3   736
    X37       CONSTR4   372
    X37       CONSTR5   37
    X37       CONSTR6   471
    X37       CONSTR7   104
    X37       CONSTR8   43
    X37       CONSTR9   602
    X37       CONSTR10  62
    X38       OBJ       811
    X38       CONSTR1   353
    X38       CONSTR2   629
    X38       CONSTR3   965
    X38       CONSTR4   567
    X38       CONSTR5   528
    X38       CONSTR6   222
    X38       CONSTR7   206
    X38       CONSTR8   886
    X38       CONSTR9   257
    X38       CONSTR10  69
    X39       OBJ       455
    X39       CONSTR1   660
    X39       CONSTR2   845
    X39       CONSTR3   267
    X39       CONSTR4   639
    X39       CONSTR5   108
    X39       CONSTR6   503
    X39       CONSTR7   92
    X39       CONSTR8   55
    X39       CONSTR9   841
    X39       CONSTR10  446
    X40       OBJ       623
    X40       CONSTR1   418
    X40       CONSTR2   898
    X40       CONSTR3   439
    X40       CONSTR4   30
    X40       CONSTR5   473
    X40       CONSTR6   40
    X40       CONSTR7   616
    X40       CONSTR8   245
    X40       CONSTR9   184
    X40       CONSTR10  775
    X41       OBJ       539
    X41       CONSTR1   252
    X41       CONSTR2   573
    X41       CONSTR3   442
    X41       CONSTR4   290
    X41       CONSTR5   310
    X41       CONSTR6   413
    X41       CONSTR7   531
    X41       CONSTR8   430
    X41       CONSTR9   463
    X41       CONSTR10  681
    X42       OBJ       675
    X42       CONSTR1   833
    X42       CONSTR2   967
    X42       CONSTR3   35
    X42       CONSTR4   845
    X42       CONSTR5   68
    X42       CONSTR6   720
    X42       CONSTR7   399
    X42       CONSTR8   993
    X42       CONSTR9   98
    X42       CONSTR10  628
    X43       OBJ       850
    X43       CONSTR1   277
    X43       CONSTR2   966
    X43       CONSTR3   127
    X43       CONSTR4   3
    X43       CONSTR5   227
    X43       CONSTR6   466
    X43       CONSTR7   99
    X43       CONSTR8   530
    X43       CONSTR9   996
    X43       CONSTR10  375
    X44       OBJ       733
    X44       CONSTR1   401
    X44       CONSTR2   117
    X44       CONSTR3   253
    X44       CONSTR4   807
    X44       CONSTR5   892
    X44       CONSTR6   364
    X44       CONSTR7   219
    X44       CONSTR8   374
    X44       CONSTR9   308
    X44       CONSTR10  743
    X45       OBJ       907
    X45       CONSTR1   982
    X45       CONSTR2   975
    X45       CONSTR3   89
    X45       CONSTR4   731
    X45       CONSTR5   353
    X45       CONSTR6   519
    X45       CONSTR7   615
    X45       CONSTR8   377
    X45       CONSTR9   822
    X45       CONSTR10  741
    X46       OBJ       505
    X46       CONSTR1   748
    X46       CONSTR2   431
    X46       CONSTR3   699
    X46       CONSTR4   72
    X46       CONSTR5   192
    X46       CONSTR6   444
    X46       CONSTR7   653
    X46       CONSTR8   667
    X46       CONSTR9   333
    X46       CONSTR10  470
    X47       OBJ       730
    X47       CONSTR1   980
    X47       CONSTR2   574
    X47       CONSTR3   356
    X47       CONSTR4   412
    X47       CONSTR5   120
    X47       CONSTR6   49
    X47       CONSTR7   913
    X47       CONSTR8   59
    X47       CONSTR9   922
    X47       CONSTR10  227
    X48       OBJ       875
    X48       CONSTR1   999
    X48       CONSTR2   918
    X48       CONSTR3   471
    X48       CONSTR4   391
    X48       CONSTR5   271
    X48       CONSTR6   879
    X48       CONSTR7   362
    X48       CONSTR8   734
    X48       CONSTR9   817
    X48       CONSTR10  731
    X49       OBJ       597
    X49       CONSTR1   547
    X49       CONSTR2   2
    X49       CONSTR3   252
    X49       CONSTR4   805
    X49       CONSTR5   277
    X49       CONSTR6   157
    X49       CONSTR7   332
    X49       CONSTR8   375
    X49       CONSTR9   587
    X49       CONSTR10  475
    X50       OBJ       700
    X50       CONSTR1   973
    X50       CONSTR2   976
    X50       CONSTR3   19
    X50       CONSTR4   598
    X50       CONSTR5   255
    X50       CONSTR6   180
    X50       CONSTR7   190
    X50       CONSTR8   449
    X50       CONSTR9   932
    X50       CONSTR10  251
    X51       OBJ       797
    X51       CONSTR1   707
    X51       CONSTR2   581
    X51       CONSTR3   185
    X51       CONSTR4   77
    X51       CONSTR5   81
    X51       CONSTR6   734
    X51       CONSTR7   290
    X51       CONSTR8   513
    X51       CONSTR9   412
    X51       CONSTR10  351
    X52       OBJ       1007
    X52       CONSTR1   777
    X52       CONSTR2   520
    X52       CONSTR3   347
    X52       CONSTR4   505
    X52       CONSTR5   897
    X52       CONSTR6   932
    X52       CONSTR7   860
    X52       CONSTR8   215
    X52       CONSTR9   298
    X52       CONSTR10  191
    X53       OBJ       781
    X53       CONSTR1   596
    X53       CONSTR2   82
    X53       CONSTR3   184
    X53       CONSTR4   230
    X53       CONSTR5   593
    X53       CONSTR6   544
    X53       CONSTR7   803
    X53       CONSTR8   993
    X53       CONSTR9   831
    X53       CONSTR10  392
    X54       OBJ       999
    X54       CONSTR1   733
    X54       CONSTR2   318
    X54       CONSTR3   153
    X54       CONSTR4   78
    X54       CONSTR5   456
    X54       CONSTR6   708
    X54       CONSTR7   558
    X54       CONSTR8   730
    X54       CONSTR9   844
    X54       CONSTR10  559
    X55       OBJ       618
    X55       CONSTR1   512
    X55       CONSTR2   706
    X55       CONSTR3   777
    X55       CONSTR4   796
    X55       CONSTR5   7
    X55       CONSTR6   449
    X55       CONSTR7   691
    X55       CONSTR8   316
    X55       CONSTR9   149
    X55       CONSTR10  977
    X56       OBJ       943
    X56       CONSTR1   755
    X56       CONSTR2   392
    X56       CONSTR3   907
    X56       CONSTR4   769
    X56       CONSTR5   378
    X56       CONSTR6   390
    X56       CONSTR7   888
    X56       CONSTR8   404
    X56       CONSTR9   968
    X56       CONSTR10  732
    X57       OBJ       852
    X57       CONSTR1   421
    X57       CONSTR2   979
    X57       CONSTR3   26
    X57       CONSTR4   67
    X57       CONSTR5   756
    X57       CONSTR6   948
    X57       CONSTR7   997
    X57       CONSTR8   165
    X57       CONSTR9   803
    X57       CONSTR10  548
    X58       OBJ       1106
    X58       CONSTR1   319
    X58       CONSTR2   939
    X58       CONSTR3   483
    X58       CONSTR4   760
    X58       CONSTR5   206
    X58       CONSTR6   949
    X58       CONSTR7   682
    X58       CONSTR8   916
    X58       CONSTR9   686
    X58       CONSTR10  513
    X59       OBJ       919
    X59       CONSTR1   863
    X59       CONSTR2   237
    X59       CONSTR3   360
    X59       CONSTR4   701
    X59       CONSTR5   185
    X59       CONSTR6   880
    X59       CONSTR7   249
    X59       CONSTR8   621
    X59       CONSTR9   368
    X59       CONSTR10  158
    X60       OBJ       785
    X60       CONSTR1   285
    X60       CONSTR2   133
    X60       CONSTR3   121
    X60       CONSTR4   439
    X60       CONSTR5   853
    X60       CONSTR6   69
    X60       CONSTR7   824
    X60       CONSTR8   747
    X60       CONSTR9   203
    X60       CONSTR10  464
    X61       OBJ       605
    X61       CONSTR1   518
    X61       CONSTR2   304
    X61       CONSTR3   27
    X61       CONSTR4   560
    X61       CONSTR5   951
    X61       CONSTR6   95
    X61       CONSTR7   893
    X61       CONSTR8   660
    X61       CONSTR9   687
    X61       CONSTR10  583
    X62       OBJ       916
    X62       CONSTR1   971
    X62       CONSTR2   820
    X62       CONSTR3   539
    X62       CONSTR4   522
    X62       CONSTR5   846
    X62       CONSTR6   154
    X62       CONSTR7   740
    X62       CONSTR8   805
    X62       CONSTR9   474
    X62       CONSTR10  260
    X63       OBJ       849
    X63       CONSTR1   423
    X63       CONSTR2   439
    X63       CONSTR3   897
    X63       CONSTR4   480
    X63       CONSTR5   616
    X63       CONSTR6   325
    X63       CONSTR7   797
    X63       CONSTR8   324
    X63       CONSTR9   658
    X63       CONSTR10  389
    X64       OBJ       950
    X64       CONSTR1   741
    X64       CONSTR2   630
    X64       CONSTR3   592
    X64       CONSTR4   368
    X64       CONSTR5   429
    X64       CONSTR6   926
    X64       CONSTR7   503
    X64       CONSTR8   522
    X64       CONSTR9   966
    X64       CONSTR10  329
    X65       OBJ       728
    X65       CONSTR1   553
    X65       CONSTR2   760
    X65       CONSTR3   310
    X65       CONSTR4   799
    X65       CONSTR5   473
    X65       CONSTR6   502
    X65       CONSTR7   17
    X65       CONSTR8   705
    X65       CONSTR9   559
    X65       CONSTR10  97
    X66       OBJ       854
    X66       CONSTR1   227
    X66       CONSTR2   411
    X66       CONSTR3   745
    X66       CONSTR4   873
    X66       CONSTR5   532
    X66       CONSTR6   988
    X66       CONSTR7   634
    X66       CONSTR8   665
    X66       CONSTR9   406
    X66       CONSTR10  391
    X67       OBJ       608
    X67       CONSTR1   424
    X67       CONSTR2   90
    X67       CONSTR3   816
    X67       CONSTR4   316
    X67       CONSTR5   847
    X67       CONSTR6   431
    X67       CONSTR7   156
    X67       CONSTR8   637
    X67       CONSTR9   919
    X67       CONSTR10  839
    X68       OBJ       820
    X68       CONSTR1   410
    X68       CONSTR2   296
    X68       CONSTR3   952
    X68       CONSTR4   384
    X68       CONSTR5   671
    X68       CONSTR6   652
    X68       CONSTR7   705
    X68       CONSTR8   747
    X68       CONSTR9   821
    X68       CONSTR10  944
    X69       OBJ       524
    X69       CONSTR1   323
    X69       CONSTR2   508
    X69       CONSTR3   778
    X69       CONSTR4   1
    X69       CONSTR5   17
    X69       CONSTR6   690
    X69       CONSTR7   243
    X69       CONSTR8   10
    X69       CONSTR9   10
    X69       CONSTR10  535
    X70       OBJ       838
    X70       CONSTR1   159
    X70       CONSTR2   283
    X70       CONSTR3   518
    X70       CONSTR4   982
    X70       CONSTR5   500
    X70       CONSTR6   214
    X70       CONSTR7   317
    X70       CONSTR8   782
    X70       CONSTR9   642
    X70       CONSTR10  44
    X71       OBJ       724
    X71       CONSTR1   584
    X71       CONSTR2   936
    X71       CONSTR3   579
    X71       CONSTR4   456
    X71       CONSTR5   313
    X71       CONSTR6   600
    X71       CONSTR7   32
    X71       CONSTR8   562
    X71       CONSTR9   461
    X71       CONSTR10  643
    X72       OBJ       729
    X72       CONSTR1   212
    X72       CONSTR2   908
    X72       CONSTR3   559
    X72       CONSTR4   146
    X72       CONSTR5   587
    X72       CONSTR6   897
    X72       CONSTR7   311
    X72       CONSTR8   87
    X72       CONSTR9   551
    X72       CONSTR10  613
    X73       OBJ       811
    X73       CONSTR1   651
    X73       CONSTR2   481
    X73       CONSTR3   8
    X73       CONSTR4   837
    X73       CONSTR5   185
    X73       CONSTR6   477
    X73       CONSTR7   119
    X73       CONSTR8   416
    X73       CONSTR9   178
    X73       CONSTR10  932
    X74       OBJ       759
    X74       CONSTR1   560
    X74       CONSTR2   741
    X74       CONSTR3   225
    X74       CONSTR4   284
    X74       CONSTR5   601
    X74       CONSTR6   64
    X74       CONSTR7   658
    X74       CONSTR8   120
    X74       CONSTR9   843
    X74       CONSTR10  739
    X75       OBJ       1060
    X75       CONSTR1   776
    X75       CONSTR2   812
    X75       CONSTR3   214
    X75       CONSTR4   957
    X75       CONSTR5   728
    X75       CONSTR6   889
    X75       CONSTR7   600
    X75       CONSTR8   608
    X75       CONSTR9   954
    X75       CONSTR10  268
    X76       OBJ       513
    X76       CONSTR1   204
    X76       CONSTR2   322
    X76       CONSTR3   32
    X76       CONSTR4   979
    X76       CONSTR5   66
    X76       CONSTR6   139
    X76       CONSTR7   959
    X76       CONSTR8   267
    X76       CONSTR9   235
    X76       CONSTR10  582
    X77       OBJ       472
    X77       CONSTR1   340
    X77       CONSTR2   277
    X77       CONSTR3   364
    X77       CONSTR4   156
    X77       CONSTR5   423
    X77       CONSTR6   831
    X77       CONSTR7   685
    X77       CONSTR8   151
    X77       CONSTR9   138
    X77       CONSTR10  645
    X78       OBJ       513
    X78       CONSTR1   670
    X78       CONSTR2   534
    X78       CONSTR3   516
    X78       CONSTR4   635
    X78       CONSTR5   704
    X78       CONSTR6   20
    X78       CONSTR7   827
    X78       CONSTR8   638
    X78       CONSTR9   217
    X78       CONSTR10  220
    X79       OBJ       749
    X79       CONSTR1   377
    X79       CONSTR2   523
    X79       CONSTR3   682
    X79       CONSTR4   573
    X79       CONSTR5   138
    X79       CONSTR6   576
    X79       CONSTR7   391
    X79       CONSTR8   89
    X79       CONSTR9   486
    X79       CONSTR10  521
    X80       OBJ       832
    X80       CONSTR1   248
    X80       CONSTR2   600
    X80       CONSTR3   637
    X80       CONSTR4   770
    X80       CONSTR5   382
    X80       CONSTR6   398
    X80       CONSTR7   166
    X80       CONSTR8   358
    X80       CONSTR9   52
    X80       CONSTR10  23
    X81       OBJ       529
    X81       CONSTR1   746
    X81       CONSTR2   140
    X81       CONSTR3   251
    X81       CONSTR4   400
    X81       CONSTR5   10
    X81       CONSTR6   791
    X81       CONSTR7   572
    X81       CONSTR8   5
    X81       CONSTR9   612
    X81       CONSTR10  370
    X82       OBJ       642
    X82       CONSTR1   427
    X82       CONSTR2   772
    X82       CONSTR3   476
    X82       CONSTR4   439
    X82       CONSTR5   402
    X82       CONSTR6   393
    X82       CONSTR7   451
    X82       CONSTR8   737
    X82       CONSTR9   346
    X82       CONSTR10  455
    X83       OBJ       843
    X83       CONSTR1   742
    X83       CONSTR2   993
    X83       CONSTR3   198
    X83       CONSTR4   122
    X83       CONSTR5   530
    X83       CONSTR6   268
    X83       CONSTR7   176
    X83       CONSTR8   812
    X83       CONSTR9   168
    X83       CONSTR10  567
    X84       OBJ       755
    X84       CONSTR1   483
    X84       CONSTR2   185
    X84       CONSTR3   468
    X84       CONSTR4   473
    X84       CONSTR5   420
    X84       CONSTR6   293
    X84       CONSTR7   973
    X84       CONSTR8   430
    X84       CONSTR9   629
    X84       CONSTR10  904
    X85       OBJ       680
    X85       CONSTR1   246
    X85       CONSTR2   808
    X85       CONSTR3   337
    X85       CONSTR4   439
    X85       CONSTR5   782
    X85       CONSTR6   90
    X85       CONSTR7   738
    X85       CONSTR8   962
    X85       CONSTR9   870
    X85       CONSTR10  381
    X86       OBJ       864
    X86       CONSTR1   564
    X86       CONSTR2   300
    X86       CONSTR3   403
    X86       CONSTR4   429
    X86       CONSTR5   156
    X86       CONSTR6   859
    X86       CONSTR7   643
    X86       CONSTR8   256
    X86       CONSTR9   378
    X86       CONSTR10  891
    X87       OBJ       902
    X87       CONSTR1   504
    X87       CONSTR2   395
    X87       CONSTR3   297
    X87       CONSTR4   534
    X87       CONSTR5   111
    X87       CONSTR6   303
    X87       CONSTR7   805
    X87       CONSTR8   342
    X87       CONSTR9   530
    X87       CONSTR10  497
    X88       OBJ       484
    X88       CONSTR1   149
    X88       CONSTR2   669
    X88       CONSTR3   51
    X88       CONSTR4   936
    X88       CONSTR5   210
    X88       CONSTR6   128
    X88       CONSTR7   164
    X88       CONSTR8   518
    X88       CONSTR9   235
    X88       CONSTR10  233
    X89       OBJ       693
    X89       CONSTR1   313
    X89       CONSTR2   929
    X89       CONSTR3   359
    X89       CONSTR4   12
    X89       CONSTR5   200
    X89       CONSTR6   156
    X89       CONSTR7   862
    X89       CONSTR8   427
    X89       CONSTR9   175
    X89       CONSTR10  44
    X90       OBJ       703
    X90       CONSTR1   67
    X90       CONSTR2   133
    X90       CONSTR3   205
    X90       CONSTR4   82
    X90       CONSTR5   918
    X90       CONSTR6   143
    X90       CONSTR7   839
    X90       CONSTR8   309
    X90       CONSTR9   56
    X90       CONSTR10  840
    X91       OBJ       723
    X91       CONSTR1   988
    X91       CONSTR2   231
    X91       CONSTR3   389
    X91       CONSTR4   670
    X91       CONSTR5   358
    X91       CONSTR6   441
    X91       CONSTR7   986
    X91       CONSTR8   174
    X91       CONSTR9   300
    X91       CONSTR10  347
    X92       OBJ       998
    X92       CONSTR1   247
    X92       CONSTR2   732
    X92       CONSTR3   682
    X92       CONSTR4   917
    X92       CONSTR5   1000
    X92       CONSTR6   517
    X92       CONSTR7   577
    X92       CONSTR8   424
    X92       CONSTR9   701
    X92       CONSTR10  374
    X93       OBJ       384
    X93       CONSTR1   250
    X93       CONSTR2   2
    X93       CONSTR3   135
    X93       CONSTR4   160
    X93       CONSTR5   145
    X93       CONSTR6   633
    X93       CONSTR7   130
    X93       CONSTR8   286
    X93       CONSTR9   493
    X93       CONSTR10  919
    X94       OBJ       860
    X94       CONSTR1   334
    X94       CONSTR2   154
    X94       CONSTR3   76
    X94       CONSTR4   540
    X94       CONSTR5   381
    X94       CONSTR6   999
    X94       CONSTR7   208
    X94       CONSTR8   156
    X94       CONSTR9   746
    X94       CONSTR10  894
    X95       OBJ       893
    X95       CONSTR1   677
    X95       CONSTR2   157
    X95       CONSTR3   43
    X95       CONSTR4   958
    X95       CONSTR5   272
    X95       CONSTR6   611
    X95       CONSTR7   388
    X95       CONSTR8   244
    X95       CONSTR9   962
    X95       CONSTR10  897
    X96       OBJ       840
    X96       CONSTR1   109
    X96       CONSTR2   987
    X96       CONSTR3   157
    X96       CONSTR4   357
    X96       CONSTR5   889
    X96       CONSTR6   590
    X96       CONSTR7   174
    X96       CONSTR8   401
    X96       CONSTR9   516
    X96       CONSTR10  771
    X97       OBJ       999
    X97       CONSTR1   984
    X97       CONSTR2   184
    X97       CONSTR3   144
    X97       CONSTR4   130
    X97       CONSTR5   819
    X97       CONSTR6   979
    X97       CONSTR7   665
    X97       CONSTR8   701
    X97       CONSTR9   340
    X97       CONSTR10  681
    X98       OBJ       824
    X98       CONSTR1   716
    X98       CONSTR2   443
    X98       CONSTR3   420
    X98       CONSTR4   669
    X98       CONSTR5   960
    X98       CONSTR6   971
    X98       CONSTR7   519
    X98       CONSTR8   113
    X98       CONSTR9   236
    X98       CONSTR10  274
    X99       OBJ       851
    X99       CONSTR1   704
    X99       CONSTR2   509
    X99       CONSTR3   981
    X99       CONSTR4   802
    X99       CONSTR5   227
    X99       CONSTR6   634
    X99       CONSTR7   504
    X99       CONSTR8   888
    X99       CONSTR9   604
    X99       CONSTR10  842
    X100      OBJ       628
    X100      CONSTR1   306
    X100      CONSTR2   114
    X100      CONSTR3   558
    X100      CONSTR4   729
    X100      CONSTR5   630
    X100      CONSTR6   702
    X100      CONSTR7   534
    X100      CONSTR8   641
    X100      CONSTR9   218
    X100      CONSTR10  134
    INT0001   'MARKER'  'INTEND'
RHS
    RHS10001  CONSTR1   12361
    RHS10001  CONSTR2   12726
    RHS10001  CONSTR3   11144
    RHS10001  CONSTR4   12748
    RHS10001  CONSTR5   10903
    RHS10001  CONSTR6   12837
    RHS10001  CONSTR7   13126
    RHS10001  CONSTR8   11631
    RHS10001  CONSTR9   12259
    RHS10001  CONSTR10  12402
BOUNDS
 BV BND       X1        .00
 BV BND       X2        .00
 BV BND       X3        .00
 BV BND       X4        .00
 BV BND       X5        .00
 BV BND       X6        .00
 BV BND       X7        .00
 BV BND       X8        .00
 BV BND       X9        .00
 BV BND       X10       .00
 BV BND       X11       .00
 BV BND       X12       .00
 BV BND       X13       .00
 BV BND       X14       .00
 BV BND       X15       .00
 BV BND       X16       .00
 BV BND       X17       .00
 BV BND       X18       .00
 BV BND       X19       .00
 BV BND       X20       .00
 BV BND       X21       .00
 BV BND       X22       .00
 BV BND       X23       .00
 BV BND       X24       .00
 BV BND       X25       .00
 BV BND       X26       .00
 BV BND       X27       .00
 BV BND       X28       .00
 BV BND       X29       .00
 BV BND       X30       .00
 BV BND       X31       .00
 BV BND       X32       .00
 BV BND       X33       .00
 BV BND       X34       .00
 BV BND       X35       .00
 BV BND       X36       .00
 BV BND       X37       .00
 BV BND       X38       .00
 BV BND       X39       .00
 BV BND       X40       .00
 BV BND       X41       .00
 BV BND       X42       .00
 BV BND       X43       .00
 BV BND       X44       .00
 BV BND       X45       .00
 BV BND       X46       .00
 BV BND       X47       .00
 BV BND       X48       .00
 BV BND       X49       .00
 BV BND       X50       .00
 BV BND       X51       .00
 BV BND       X52       .00
 BV BND       X53       .00
 BV BND       X54       .00
 BV BND       X55       .00
 BV BND       X56       .00
 BV BND       X57       .00
 BV BND       X58       .00
 BV BND       X59       .00
 BV BND       X60       .00
 BV BND       X61       .00
 BV BND       X62       .00
 BV BND       X63       .00
 BV BND       X64       .00
 BV BND       X65       .00
 BV BND       X66       .00
 BV BND       X67       .00
 BV BND       X68       .00
 BV BND       X69       .00
 BV BND       X70       .00
 BV BND       X71       .00
 BV BND       X72       .00
 BV BND       X73       .00
 BV BND       X74       .00
 BV BND       X75       .00
 BV BND       X76       .00
 BV BND       X77       .00
 BV BND       X78       .00
 BV BND       X79       .00
 BV BND       X80       .00
 BV BND       X81       .00
 BV BND       X82       .00
 BV BND       X83       .00
 BV BND       X84       .00
 BV BND       X85       .00
 BV BND       X86       .00
 BV BND       X87       .00
 BV BND       X88       .00
 BV BND       X89       .00
 BV BND       X90       .00
 BV BND       X91       .00
 BV BND       X92       .00
 BV BND       X93       .00
 BV BND       X94       .00
 BV BND       X95       .00
 BV BND       X96       .00
 BV BND       X97       .00
 BV BND       X98       .00
 BV BND       X99       .00
 BV BND       X100      .00
ENDATA
